Version identifier: 12.10.0.0 | 2019-11-26 | 843d4de
CPXPARAM_WorkMem                                 28672
Tried aggregator 2 times.
Aggregator did 75 substitutions.
Reduced MIP has 319 rows, 360 columns, and 1480 nonzeros.
Reduced MIP has 360 binaries, 0 generals, 0 SOSs, and 0 indicators.
Presolve time = 0,00 sec. (1,44 ticks)
Found incumbent of value 300,000000 after 0,01 sec. (2,23 ticks)
Probing time = 0,00 sec. (0,72 ticks)
Tried aggregator 1 time.
Detecting symmetries...
MIP Presolve eliminated 68 rows and 0 columns.
MIP Presolve added 136 rows and 0 columns.
Reduced MIP has 387 rows, 360 columns, and 1548 nonzeros.
Reduced MIP has 360 binaries, 0 generals, 0 SOSs, and 0 indicators.
Presolve time = 0,00 sec. (1,90 ticks)
Probing time = 0,00 sec. (0,70 ticks)
Clique table members: 1075.
MIP emphasis: balance optimality and feasibility.
MIP search method: dynamic search.
Parallel mode: deterministic, using up to 16 threads.
Root relaxation solution time = 0,01 sec. (1,82 ticks)

        Nodes                                         Cuts/
   Node  Left     Objective  IInf  Best Integer    Best Bound    ItCnt     Gap

*     0+    0                          300,0000        0,0000           100,00%
*     0+    0                          173,0000        0,0000           100,00%
*     0+    0                          170,0000        0,0000           100,00%
*     0+    0                          162,0000        0,0000           100,00%
      0     0       75,0000   264      162,0000       75,0000      139   53,70%
      0     0       75,1227   264      162,0000     Cuts: 196      230   53,63%
      0     0       76,2703   264      162,0000     Cuts: 161      279   52,92%
      0     0       77,4505   264      162,0000     Cuts: 147      353   52,19%
      0     0       77,7374   264      162,0000     Cuts: 116      393   52,01%
      0     0       77,9019   264      162,0000     Cuts: 133      406   51,91%
      0     0       77,9323   264      162,0000      Cuts: 61      412   51,89%
      0     0       77,9391   264      162,0000   ZeroHalf: 1      415   51,89%
*     0+    0                          157,0000       77,9391            50,36%
      0     2       77,9391   358      157,0000       87,3278      415   44,38%
Elapsed time = 0,23 sec. (102,84 ticks, tree = 0,02 MB, solutions = 5)
*   975+  529                          156,0000       90,5102            41,98%
   3438  2268      135,5728   162      156,0000      117,3133    70929   24,80%

Performing restart 1

Repeating presolve.
Tried aggregator 1 time.
Reduced MIP has 387 rows, 360 columns, and 1548 nonzeros.
Reduced MIP has 360 binaries, 0 generals, 0 SOSs, and 0 indicators.
Presolve time = 0,00 sec. (0,94 ticks)
Tried aggregator 1 time.
Reduced MIP has 387 rows, 360 columns, and 1548 nonzeros.
Reduced MIP has 360 binaries, 0 generals, 0 SOSs, and 0 indicators.
Presolve time = 0,00 sec. (1,34 ticks)
Represolve time = 0,01 sec. (8,61 ticks)
   4576     0       79,0846   358      156,0000      Cuts: 10   104765   21,85%
   4576     0       79,6512   358      156,0000       Cuts: 5   104834   21,85%
   4576     0       79,8626   358      156,0000       Cuts: 4   104898   21,85%
   4576     0       80,0146   358      156,0000      Cuts: 12   104952   21,85%
   4576     2       80,0146   359      156,0000      121,9180   104952   21,85%
   4587     7       98,0708   281      156,0000      121,9180   106545   21,85%
   5983   895      145,6333    37      156,0000      121,9180   163800   21,85%
   8108  2516      147,8892   176      156,0000      121,9180   230642   21,85%

Performing restart 2

Repeating presolve.
Tried aggregator 1 time.
Reduced MIP has 387 rows, 360 columns, and 1548 nonzeros.
Reduced MIP has 360 binaries, 0 generals, 0 SOSs, and 0 indicators.
Presolve time = 0,00 sec. (0,94 ticks)
Tried aggregator 1 time.
Reduced MIP has 387 rows, 360 columns, and 1548 nonzeros.
Reduced MIP has 360 binaries, 0 generals, 0 SOSs, and 0 indicators.
Presolve time = 0,00 sec. (1,34 ticks)
Represolve time = 0,03 sec. (19,72 ticks)
  10596     0       81,1995   358      156,0000      Cuts: 17   321371   21,85%
  10596     0       81,4163   358      156,0000      Cuts: 10   321444   21,85%
  10596     0       81,5290   358      156,0000       Cuts: 7   321491   21,85%
  10596     0       81,6199   358      156,0000       Cuts: 6   321523   21,85%
  10596     0       81,6279   358      156,0000       Cuts: 5   321542   21,85%
  10596     0       81,6419   358      156,0000       Cuts: 5   321565   21,85%
  10596     2       81,6419   360      156,0000      121,9180   321565   21,85%
* 11782+  738                          155,0000      121,9180            21,34%
  13021  1595      146,6833    41      155,0000      121,9180   364860   21,34%
* 14824+ 2913                          153,0000      128,4579            16,04%
* 14944+ 2674                          152,0000      128,6715            15,35%
  15795  2858      137,2965   163      152,0000      131,2787   434089   13,63%
  18236  3594      149,2815   168      152,0000      136,8528   504672    9,97%

Clique cuts applied:  21
Cover cuts applied:  578
Mixed integer rounding cuts applied:  14
Zero-half cuts applied:  9
Lift and project cuts applied:  2
Gomory fractional cuts applied:  41

Root node processing (before b&c):
  Real time             =    0,22 sec. (102,47 ticks)
Parallel b&c, 16 threads:
  Real time             =    4,50 sec. (3467,71 ticks)
  Sync time (average)   =    1,22 sec.
  Wait time (average)   =    0,01 sec.
                          ------------
Total (root+branch&cut) =    4,72 sec. (3570,18 ticks)
